/* Objective function */
max: ;

/* Constraints */
R1: +x7 <= 0;
R2: +x8 <= 0;
R3: +x10 <= 0;
R4: +x3 <= 0;
0 x1 <= 1;
R6: +x1 <= 0;
R7: +x12 <= 0;
R8: +x5 <= 0;
R9: +x1 <= 0;
R10: +x2 <= 0;
R11: +x9 <= 0;
R12: +x4 <= 0;
R13: +x11 <= 0;
R14: +x6 <= 0;
R15: +x1 <= 0;
0 x1 <= 0;
R17: +x7 >= 0;
R18: +x9 >= 0;
R19: +x1 >= 0;
R20: +x10 >= 0;
R21: +x12 >= 0;
0 x1 >= 1;
R23: +x11 >= 0;
R24: +x12 >= 0;
R25: +x5 >= 0;
R26: +x2 >= 0;
R27: +x3 >= 0;
R28: +x6 >= 0;
R29: +x8 >= 0;
R30: +x12 >= 0;
R31: +x4 >= 0;
R32: +x1 >= 0;
R33: +x2 >= 0;
R34: +x3 >= 0;
R35: +x4 >= 0;
R36: +x5 >= 0;
R37: +x6 >= 0;
R38: +x7 >= 0;
R39: +x8 >= 0;
R40: +x9 >= 0;
R41: +x10 >= 0;
R42: +x11 >= 0;
R43: +x12 >= 0;
